time,f_compressive,f_shear,f_tensile,intnl_shear,intnl_tensile,iter,ls,strainp_xx,strainp_xy,strainp_xz,strainp_yy,strainp_yz,strainp_zz,straint_xx,straint_xy,straint_xz,straint_yy,straint_yz,straint_zz,stress_xx,stress_xy,stress_xz,stress_yy,stress_yz,stress_zz
0,0,0,0,0,0,0,0,0,0,0,0,0,0,0,0,0,0,0,0,0,0,0,0,0,0
1,-99999998.828842,2.772500679038e-08,-100000001.17116,1.6329255062768,2.7834415328165e-11,3,0,-8.3503325781775e-12,0,0.36513324342281,-8.3503291087306e-12,0.73026648684563,0.097596464597611,0,2.9056618222612e-17,0.5,1.1622647289045e-16,1,0,-0.39038585825684,2.3245294578089e-16,1.0789340526175,-0.39038585825684,2.157868105235,-1.1711575751045

