time,hydro_avg,strain_xx_point,stress_xx_point,von_mises_avg
0,0,0,0,0
10000,16122299.773937,0.00049987487523412,16122638.367857,3506534.703525
20000,16122299.773937,0.00049987487523412,16122519.38507,2274329.2544168
30000,16122299.773937,0.00049987487523412,16122457.787454,1636414.1472579
