time,hydro_avg,strain_xx_point,stress_xx_point,von_mises_avg
0,0,0,0,0
10000,21497298.432365,0.00049987487523401,20706261.595701,2373110.5099911
20000,21497298.432365,0.00049987487523401,20933460.509475,1691513.7686677
30000,21497298.432365,0.00049987487523401,21066247.377546,1293153.1644558
