time,hydro_avg,strain_xx_point,stress_xx_point,von_mises_avg
0,0,0,0,0
1,21505376.344086,0.0005,20266218.9711,3717472.1189591
