time,hydro_avg,strain_xx_point,stress_xx_point,von_mises_avg
0,0,0,0,0
1,16129032.258065,0.0005,16129032.258064,6438850.5857579
