time,hydro_avg,strain_xx_point,stress_xx_point,von_mises_avg
0,0,0,0,0
1,5089058.524173,0.0005,7633587.7862595,7633587.7862595
