time,stress_zz,total_twin_volume_fraction,twin_resistance_0,twin_resistance_1,twin_resistance_2,twin_resistance_3,twin_volume_fraction_0,twin_volume_fraction_1,twin_volume_fraction_2,twin_volume_fraction_3
0,0,0,0,0,0,0,0,0,0,0
0.05,-3.2382392652154,4.573293544311e-18,6,6,6,6,0,4.573293544311e-18,0,0
0.1,-6.4757607670762,4.7930532114236e-12,6,6,6,6,0,4.7930532114236e-12,0,0
0.15,-9.7122207573334,1.5920715224473e-08,6.0000001433407,6.0000001433407,6,6,0,1.5920715224473e-08,0,0
0.2,-12.860027139734,4.1091846948185e-06,6.0095209717669,6.0095209717669,6,6,0,4.1091846948185e-06,0,0
