time,stress_zz,total_twin_volume_fraction,twin_resistance_0,twin_resistance_1,twin_resistance_2,twin_resistance_3,twin_volume_fraction_0,twin_volume_fraction_1,twin_volume_fraction_2,twin_volume_fraction_3
0,0,0,0,0,0,0,0,0,0,0
0.05,-3.2382392652154,4.573293544311e-18,6,6,6,6,0,4.573293544311e-18,0,0
0.1,-6.4757607670749,4.7930532114429e-12,6,6,6.00000002001,6.00000002001,0,4.7930532114429e-12,0,0
0.15,-9.7122207573334,1.5920722829153e-08,6,6,6.0001495069605,6.0001495069605,0,1.5920722829153e-08,0,0
0.2,-12.857587140575,4.2223010496217e-06,6,6,6.0691824252456,6.0691824252456,0,4.2223010496217e-06,0,0
